Running MiniSat on FULL_RUN_MINISAT\9e85aad5707405fb349c6c5548040cf4-pcmax-scheduling-m35-32274-371389-SAT.sanitized.cnf... 
============================[ Problem Statistics ]=============================
|                                                                             |
|  Number of variables:         32273                                         |
|  Number of clauses:          361039                                         |
|  Parse time:                   0.59 s                                       |
|                                                                             |
============================[ Search Statistics ]==============================
| Conflicts |          ORIGINAL         |          LEARNT          | Progress |
|           |    Vars  Clauses Literals |    Limit  Clauses Lit/Cl |          |
===============================================================================
|       100 |   31525   345319   995585 |   126616      100      4 |  2.318 % |
|       250 |   31525   345319   995585 |   139278      250      4 |  2.318 % |
|       475 |   31525   345319   995585 |   153206      475      6 |  2.318 % |
|       812 |   31508   345319   995585 |   168527      807      5 |  2.370 % |
|      1318 |   31508   345319   995585 |   185379     1313      8 |  2.370 % |
|      2077 |   31508   345319   995585 |   203917     2072     10 |  2.370 % |
|      3216 |   31508   344879   994397 |   224309     3209     41 |  2.370 % |
|      4924 |   31508   344879   994397 |   246740     4917     39 |  2.370 % |
|      7486 |   31508   344879   994397 |   271414     7479     84 |  2.370 % |
|     11330 |   31497   344599   993615 |   298556    11318     98 |  2.404 % |
|     17096 |   31488   344356   993009 |   328411    17075    109 |  2.432 % |
|     25745 |   31486   343669   991103 |   361252    25706    117 |  2.439 % |
|     38719 |   31485   343610   990983 |   397378    38677    143 |  2.442 % |
Timeout reached. Terminating MiniSat... 
Finished MiniSat on FULL_RUN_MINISAT\a08e66296d00f480e9ccadd79fa8b904-j3045_4_gmto_b.cnf